\* Problem: Unknown *\

Maximize
 obj: + xp_0_0 + xp_0_1 + xp_0_2 + xp_1_0 + xp_1_1 + xp_1_2 + xp_1_3
 + xp_1_4 + xp_1_5 + xp_2_0 + xp_2_1 + xp_2_2 + xp_2_3 + xp_2_4 + xp_2_5
 + xp_2_6 + xp_2_7 + xp_2_8 + xp_2_9 + xp_2_10 + xp_3_0 + xp_3_1
 + xp_3_2 + xp_3_3 + xp_3_4 + xp_4_0 + xp_4_1 + xp_5_0 + xp_5_1 + xp_5_2
 + xp_6_0 + xp_6_1 + xp_7_0 + xp_8_0 + xp_8_1 + xp_8_2 + xp_9_0 + xp_9_1
 + xp_9_2 + xp_10_0 + xp_10_1 + xp_10_2 + xp_10_3 + xp_11_0 + xp_11_1
 + xp_12_0 + xp_12_1 + xp_13_0 + xp_13_1 + xp_13_2 + xp_13_3 + xp_14_0
 + xp_14_1 + xp_14_2 + xp_14_3 + xp_14_4 + xp_14_5 + xp_14_6 + xp_14_7
 + xp_15_0 + xp_15_1 + xp_15_2 + xp_16_0 + xp_17_0 + xp_17_1 + xp_17_2
 + xp_17_3 + xp_18_0 + xp_18_1 + xp_18_2 + xp_18_3 + xp_18_4 + xp_19_0
 + xp_19_1 + xp_19_2 + xp_19_3 + xp_19_4 + xp_19_5 + xp_19_6 + xp_19_7
 + xp_20_0 + xp_20_1 + xp_20_2 + xp_20_3 + xp_20_4 + xp_20_5 + xp_21_0
 + xp_21_1 + xp_21_2 + xp_21_3

Subject To
 r_1: + xp_20_0 <= 0.964472309299895
 r_2: + xp_10_0 + xp_2_1 <= 0.964472309299895
 r_3: + xp_20_5 + xp_10_1 + xp_4_1 + xp_2_7 <= 0.93500424808836
 r_4: + xp_20_3 + xp_19_2 + xp_18_0 + xp_10_3 + xp_2_9
 <= 0.964472309299895
 r_5: + xp_21_2 + xp_20_4 + xp_19_6 + xp_18_4 + xp_11_1 + xp_3_2
 <= 0.972070098576123
 r_6: + xp_19_7 + xp_11_0 <= 0.945362718089991
 r_7: + xp_20_2 + xp_10_2 <= 0.964472309299895
 r_8: + xp_20_1 <= 0.93038493038493
 r_9: + xp_2_8 + xp_2_0 + xp_1_5 <= 0.964472309299895
 r_10: 0 xp_0_0 <= 0.93500424808836
 r_11: + xp_0_1 <= 0.964472309299895
 r_12: 0 xp_0_0 <= 0.93038493038493
 r_13: + xp_12_1 <= 0.945362718089991
 r_14: + xp_2_3 <= 0.964472309299895
 r_15: + xp_3_4 <= 0.972070098576123
 r_16: + xp_13_1 <= 0.964472309299895
 r_17: 0 xp_0_0 <= 0.964472309299895
 r_18: + xp_19_0 <= 0.945362718089991
 r_19: + xp_14_2 <= 0.964472309299895
 r_20: + xp_1_2 <= 1
 r_21: 0 xp_0_0 <= 0.93500424808836
 r_22: + xp_2_4 <= 0.964472309299895
 r_23: 0 xp_0_0 <= 0.93038493038493
 r_24: 0 xp_0_0 <= 0.93038493038493
 r_25: 0 xp_0_0 <= 0.972070098576123
 r_26: + xp_17_0 + xp_15_2 <= 0.972070098576123
 r_27: + xp_20_4 + xp_1_0 <= 0.972070098576123
 r_28: 0 xp_0_0 <= 0.93500424808836
 r_29: + xp_17_1 + xp_5_2 + xp_2_6 <= 0.972070098576123
 r_30: + xp_18_4 + xp_18_2 + xp_17_3 + xp_14_5 <= 0.964472309299895
 r_31: + xp_1_4 <= 0.972070098576123
 r_32: + xp_19_6 + xp_19_1 + xp_17_2 + xp_11_1 <= 0.945362718089991
 r_33: + xp_21_1 + xp_13_3 + xp_1_3 <= 0.945362718089991
 r_34: + xp_13_0 <= 0.945362718089991
 r_35: + xp_17_2 + xp_13_1 + xp_8_2 + xp_2_8 <= 0.945362718089991
 r_36: + xp_21_3 + xp_13_2 + xp_2_10 <= 0.964472309299895
 r_37: + xp_21_2 + xp_9_1 <= 0.945362718089991
 r_38: 0 xp_0_0 <= 0.93038493038493
 r_39: + xp_21_0 + xp_3_1 <= 0.945362718089991
 r_40: 0 xp_0_0 <= 0.964472309299895
 r_41: 0 xp_0_0 <= 0.964472309299895
 r_42: + xp_17_1 + xp_14_6 + xp_14_4 <= 0.964472309299895
 r_43: + xp_1_5 <= 1
 r_44: 0 xp_0_0 <= 0.93500424808836
 r_45: 0 xp_0_0 <= 0.972070098576123
 r_46: 0 xp_0_0 <= 1
 r_47: + xp_19_3 + xp_6_0 <= 0.945362718089991
 r_48: + xp_19_5 + xp_18_3 + xp_6_1 <= 0.964472309299895
 r_49: 0 xp_0_0 <= 0.93500424808836
 r_50: + xp_20_4 + xp_20_2 + xp_13_3 <= 1
 r_51: + xp_21_1 + xp_5_2 <= 0.972070098576123
 r_52: + xp_14_6 + xp_5_0 <= 1
 r_53: + xp_14_7 + xp_5_1 <= 1
 r_54: + xp_10_3 + xp_2_9 + xp_2_4 + xp_2_3 <= 0.964472309299895
 r_55: + xp_7_0 <= 0.964472309299895
 r_56: + xp_19_5 + xp_19_4 + xp_19_2 + xp_8_2 + xp_6_1
 <= 0.964472309299895
 r_57: 0 xp_0_0 <= 0.964472309299895
 r_58: + xp_17_3 + xp_15_1 + xp_14_5 + xp_8_0 <= 0.964472309299895
 r_59: + xp_20_3 + xp_16_0 + xp_13_2 <= 0.964472309299895
 r_60: + xp_21_3 + xp_15_2 <= 0.964472309299895
 r_61: + xp_8_1 + xp_2_10 <= 0.964472309299895
 r_62: + xp_19_5 + xp_19_3 + xp_18_3 + xp_14_7 + xp_14_6 + xp_1_1
 <= 0.93500424808836
 r_63: + xp_19_7 + xp_19_6 + xp_19_2 + xp_18_4 + xp_18_0 + xp_9_2
 <= 0.93500424808836
 r_64: + xp_14_0 <= 0.93500424808836
 r_65: + xp_20_5 + xp_19_0 + xp_14_2 <= 0.93500424808836
 r_66: + xp_19_1 + xp_18_2 + xp_14_5 <= 0.93500424808836
 r_67: + xp_14_4 + xp_10_1 + xp_2_7 + xp_2_2 <= 0.93500424808836
 r_68: + xp_19_4 + xp_18_1 + xp_14_1 + xp_2_5 + xp_0_2
 <= 0.93500424808836
 r_69: + xp_14_3 <= 0.93038493038493
 r_70: 0 xp_0_0 <= 0.93038493038493
 r_71: + xp_15_0 + xp_14_7 + xp_14_1 + xp_8_1 <= 0.964472309299895
 r_72: + xp_4_1 <= 0.964472309299895
 r_73: + xp_3_3 <= 0.972070098576123
 r_74: + xp_10_2 + xp_5_1 + xp_2_10 + xp_2_5 <= 1
 r_75: + xp_20_2 + xp_1_4 <= 1
 r_76: + xp_19_4 + xp_18_1 + xp_15_2 + xp_15_1 <= 0.964472309299895
 r_77: + xp_4_0 <= 0.93500424808836
 r_78: + xp_3_0 + xp_2_6 + xp_1_4 + xp_1_0 <= 0.93038493038493
 r_79: + xp_3_3 + xp_0_0 <= 0.93038493038493
 r_80: + xp_14_3 + xp_12_1 + xp_3_4 + xp_2_3 + xp_2_0 + xp_1_5 + xp_0_1
 <= 0.93038493038493
 r_81: + xp_9_0 + xp_3_2 + xp_2_9 + xp_2_7 + xp_2_1 <= 0.93038493038493
 r_82: + xp_20_1 + xp_2_4 + xp_1_2 <= 0.93038493038493
 r_83: + xp_12_0 + xp_9_1 + xp_3_1 + xp_2_10 + xp_2_8 + xp_1_3
 <= 0.93038493038493
 r_84: + xp_9_2 + xp_2_5 + xp_2_2 + xp_1_1 + xp_0_2 <= 0.93038493038493

Bounds
 0 <= xp_0_0 <= 0.444444444444444
 0 <= xp_0_1 <= 0.222222222222222
 0 <= xp_0_2 <= 0.222222222222222
 0 <= xp_1_0 <= 0.222222222222222
 0 <= xp_1_1 <= 0.277777777777778
 0 <= xp_1_2 <= 0.5
 0 <= xp_1_3 <= 0.166666666666667
 0 <= xp_1_4 <= 0.0555555555555556
 0 <= xp_1_5 <= 0.111111111111111
 0 <= xp_2_0 <= 0.166666666666667
 0 <= xp_2_1 <= 0.222222222222222
 0 <= xp_2_2 <= 0.222222222222222
 0 <= xp_2_3 <= 0.111111111111111
 0 <= xp_2_4 <= 0.166666666666667
 0 <= xp_2_5 <= 0.111111111111111
 0 <= xp_2_6 <= 0.0555555555555556
 0 <= xp_2_7 <= 0.0555555555555556
 0 <= xp_2_8 <= 0.111111111111111
 0 <= xp_2_9 <= 0.0555555555555556
 0 <= xp_2_10 <= 0.0555555555555556
 0 <= xp_3_0 <= 0.666666666666667
 0 <= xp_3_1 <= 0.111111111111111
 0 <= xp_3_2 <= 0.222222222222222
 0 <= xp_3_3 <= 0.555555555555556
 0 <= xp_3_4 <= 0.222222222222222
 0 <= xp_4_0 <= 0.388888888888889
 0 <= xp_4_1 <= 0.0555555555555556
 0 <= xp_5_0 <= 0.555555555555556
 0 <= xp_5_1 <= 0.222222222222222
 0 <= xp_5_2 <= 0.111111111111111
 0 <= xp_6_0 <= 0.666666666666667
 0 <= xp_6_1 <= 0.222222222222222
 0 <= xp_7_0 <= 0.444444444444444
 0 <= xp_8_0 <= 0.333333333333333
 0 <= xp_8_1 <= 0.0555555555555556
 0 <= xp_8_2 <= 0.0555555555555556
 0 <= xp_9_0 <= 0.333333333333333
 0 <= xp_9_1 <= 0.0555555555555556
 0 <= xp_9_2 <= 0.0555555555555556
 0 <= xp_10_0 <= 0.555555555555556
 0 <= xp_10_1 <= 0.277777777777778
 0 <= xp_10_2 <= 0.277777777777778
 0 <= xp_10_3 <= 0.222222222222222
 0 <= xp_11_0 <= 0.777777777777778
 0 <= xp_11_1 <= 0.111111111111111
 0 <= xp_12_0 <= 0.388888888888889
 0 <= xp_12_1 <= 0.0555555555555556
 0 <= xp_13_0 <= 0.888888888888889
 0 <= xp_13_1 <= 0.555555555555556
 0 <= xp_13_2 <= 0.111111111111111
 0 <= xp_13_3 <= 0.222222222222222
 0 <= xp_14_0 <= 0.888888888888889
 0 <= xp_14_1 <= 0.277777777777778
 0 <= xp_14_2 <= 0.611111111111111
 0 <= xp_14_3 <= 0.0555555555555556
 0 <= xp_14_4 <= 0.222222222222222
 0 <= xp_14_5 <= 0.0555555555555556
 0 <= xp_14_6 <= 0.0555555555555556
 0 <= xp_14_7 <= 0.0555555555555556
 0 <= xp_15_0 <= 0.444444444444444
 0 <= xp_15_1 <= 0.333333333333333
 0 <= xp_15_2 <= 0.111111111111111
 0 <= xp_16_0 <= 0.444444444444444
 0 <= xp_17_0 <= 0.722222222222222
 0 <= xp_17_1 <= 0.444444444444444
 0 <= xp_17_2 <= 0.0555555555555556
 0 <= xp_17_3 <= 0.111111111111111
 0 <= xp_18_0 <= 0.111111111111111
 0 <= xp_18_1 <= 0.0555555555555556
 0 <= xp_18_2 <= 0.166666666666667
 0 <= xp_18_3 <= 0.0555555555555556
 0 <= xp_18_4 <= 0.0555555555555556
 0 <= xp_19_0 <= 0.222222222222222
 0 <= xp_19_1 <= 0.5
 0 <= xp_19_2 <= 0.111111111111111
 0 <= xp_19_3 <= 0.0555555555555556
 0 <= xp_19_4 <= 0.0555555555555556
 0 <= xp_19_5 <= 0.222222222222222
 0 <= xp_19_6 <= 0.0555555555555556
 0 <= xp_19_7 <= 0.111111111111111
 0 <= xp_20_0 <= 1
 0 <= xp_20_1 <= 0.277777777777778
 0 <= xp_20_2 <= 0.444444444444444
 0 <= xp_20_3 <= 0.277777777777778
 0 <= xp_20_4 <= 0.166666666666667
 0 <= xp_20_5 <= 0.0555555555555556
 0 <= xp_21_0 <= 0.611111111111111
 0 <= xp_21_1 <= 0.222222222222222
 0 <= xp_21_2 <= 0.111111111111111
 0 <= xp_21_3 <= 0.388888888888889

End
